c Reduced graph for r07_0 generated by Cyril Grelier
p edge 141 1253
e 1 2
e 1 3
e 1 4
e 1 5
e 1 6
e 1 7
e 1 8
e 1 9
e 1 10
e 1 11
e 1 12
e 1 13
e 1 16
e 1 19
e 1 22
e 1 23
e 1 24
e 1 35
e 1 55
e 1 63
e 1 75
e 1 76
e 1 77
e 1 91
e 1 92
e 2 3
e 2 4
e 2 7
e 2 8
e 2 12
e 2 13
e 2 14
e 2 15
e 2 16
e 2 19
e 2 22
e 2 24
e 2 25
e 2 26
e 2 27
e 2 39
e 2 40
e 2 63
e 2 75
e 2 82
e 2 96
e 2 97
e 3 4
e 3 7
e 3 8
e 3 12
e 3 13
e 3 16
e 3 17
e 3 18
e 3 19
e 3 22
e 3 24
e 3 30
e 3 31
e 3 46
e 3 63
e 3 75
e 3 84
e 3 99
e 3 100
e 3 112
e 3 113
e 4 7
e 4 8
e 4 12
e 4 13
e 4 16
e 4 19
e 4 20
e 4 21
e 4 22
e 4 24
e 4 32
e 4 33
e 4 49
e 4 50
e 4 63
e 4 69
e 4 75
e 4 87
e 4 103
e 4 104
e 5 6
e 5 9
e 5 10
e 5 11
e 5 14
e 5 17
e 5 20
e 5 23
e 5 28
e 5 35
e 5 36
e 5 44
e 5 47
e 5 53
e 5 55
e 5 59
e 5 76
e 5 77
e 5 91
e 5 92
e 5 95
e 5 101
e 6 9
e 6 10
e 6 11
e 6 15
e 6 18
e 6 21
e 6 23
e 6 29
e 6 34
e 6 35
e 6 37
e 6 38
e 6 45
e 6 48
e 6 54
e 6 55
e 6 60
e 6 76
e 6 77
e 6 91
e 6 92
e 7 8
e 7 12
e 7 13
e 7 16
e 7 19
e 7 22
e 7 24
e 7 28
e 7 29
e 7 41
e 7 42
e 7 43
e 7 63
e 7 64
e 7 65
e 7 75
e 7 110
e 7 111
e 8 12
e 8 13
e 8 16
e 8 19
e 8 22
e 8 24
e 8 34
e 8 51
e 8 52
e 8 63
e 8 70
e 8 71
e 8 75
e 8 88
e 8 115
e 8 116
e 8 124
e 9 10
e 9 11
e 9 23
e 9 25
e 9 32
e 9 35
e 9 41
e 9 51
e 9 55
e 9 56
e 9 61
e 9 66
e 9 72
e 9 76
e 9 77
e 9 79
e 9 91
e 9 92
e 9 108
e 10 11
e 10 23
e 10 26
e 10 30
e 10 35
e 10 42
e 10 55
e 10 57
e 10 62
e 10 68
e 10 73
e 10 76
e 10 77
e 10 80
e 10 91
e 10 92
e 10 109
e 10 117
e 11 23
e 11 27
e 11 31
e 11 33
e 11 35
e 11 43
e 11 52
e 11 55
e 11 58
e 11 67
e 11 74
e 11 76
e 11 77
e 11 91
e 11 92
e 11 114
e 11 118
e 12 13
e 12 16
e 12 19
e 12 22
e 12 24
e 12 36
e 12 37
e 12 56
e 12 57
e 12 58
e 12 63
e 12 75
e 12 78
e 12 105
e 12 119
e 12 126
e 13 16
e 13 19
e 13 22
e 13 24
e 13 38
e 13 61
e 13 62
e 13 63
e 13 75
e 13 81
e 13 94
e 13 107
e 13 120
e 13 129
e 13 130
e 14 15
e 14 17
e 14 20
e 14 25
e 14 26
e 14 27
e 14 28
e 14 36
e 14 39
e 14 40
e 14 44
e 14 47
e 14 53
e 14 59
e 14 82
e 14 95
e 14 96
e 14 97
e 14 101
e 15 18
e 15 21
e 15 25
e 15 26
e 15 27
e 15 29
e 15 34
e 15 37
e 15 38
e 15 39
e 15 40
e 15 45
e 15 48
e 15 54
e 15 60
e 15 82
e 15 96
e 15 97
e 16 19
e 16 22
e 16 24
e 16 44
e 16 45
e 16 63
e 16 66
e 16 67
e 16 75
e 16 83
e 16 98
e 16 121
e 16 132
e 17 18
e 17 20
e 17 28
e 17 30
e 17 31
e 17 36
e 17 44
e 17 46
e 17 47
e 17 53
e 17 59
e 17 84
e 17 95
e 17 99
e 17 100
e 17 101
e 17 112
e 17 113
e 18 21
e 18 29
e 18 30
e 18 31
e 18 34
e 18 37
e 18 38
e 18 45
e 18 46
e 18 48
e 18 54
e 18 60
e 18 84
e 18 99
e 18 100
e 18 112
e 18 113
e 19 22
e 19 24
e 19 47
e 19 48
e 19 63
e 19 68
e 19 75
e 19 85
e 19 86
e 19 102
e 19 123
e 19 134
e 20 21
e 20 28
e 20 32
e 20 33
e 20 36
e 20 44
e 20 47
e 20 49
e 20 50
e 20 53
e 20 59
e 20 69
e 20 87
e 20 95
e 20 101
e 20 103
e 20 104
e 21 29
e 21 32
e 21 33
e 21 34
e 21 37
e 21 38
e 21 45
e 21 48
e 21 49
e 21 50
e 21 54
e 21 60
e 21 69
e 21 87
e 21 103
e 21 104
e 22 24
e 22 53
e 22 54
e 22 63
e 22 72
e 22 73
e 22 74
e 22 75
e 22 89
e 22 90
e 22 135
e 23 35
e 23 40
e 23 46
e 23 50
e 23 55
e 23 65
e 23 71
e 23 76
e 23 77
e 23 83
e 23 86
e 23 90
e 23 91
e 23 92
e 23 122
e 24 59
e 24 60
e 24 63
e 24 75
e 24 79
e 24 80
e 24 93
e 24 106
e 24 127
e 24 128
e 25 26
e 25 27
e 25 32
e 25 39
e 25 40
e 25 41
e 25 51
e 25 56
e 25 61
e 25 66
e 25 72
e 25 79
e 25 82
e 25 96
e 25 97
e 25 108
e 26 27
e 26 30
e 26 39
e 26 40
e 26 42
e 26 57
e 26 62
e 26 68
e 26 73
e 26 80
e 26 82
e 26 96
e 26 97
e 26 109
e 26 117
e 27 31
e 27 33
e 27 39
e 27 40
e 27 43
e 27 52
e 27 58
e 27 67
e 27 74
e 27 82
e 27 96
e 27 97
e 27 114
e 27 118
e 28 29
e 28 36
e 28 41
e 28 42
e 28 43
e 28 44
e 28 47
e 28 53
e 28 59
e 28 64
e 28 65
e 28 95
e 28 101
e 28 110
e 28 111
e 29 34
e 29 37
e 29 38
e 29 41
e 29 42
e 29 43
e 29 45
e 29 48
e 29 54
e 29 60
e 29 64
e 29 65
e 29 110
e 29 111
e 30 31
e 30 42
e 30 46
e 30 57
e 30 62
e 30 68
e 30 73
e 30 80
e 30 84
e 30 99
e 30 100
e 30 109
e 30 112
e 30 113
e 30 117
e 31 33
e 31 43
e 31 46
e 31 52
e 31 58
e 31 67
e 31 74
e 31 84
e 31 99
e 31 100
e 31 112
e 31 113
e 31 114
e 31 118
e 32 33
e 32 41
e 32 49
e 32 50
e 32 51
e 32 56
e 32 61
e 32 66
e 32 69
e 32 72
e 32 79
e 32 87
e 32 103
e 32 104
e 32 108
e 33 43
e 33 49
e 33 50
e 33 52
e 33 58
e 33 67
e 33 69
e 33 74
e 33 87
e 33 103
e 33 104
e 33 114
e 33 118
e 34 37
e 34 38
e 34 45
e 34 48
e 34 51
e 34 52
e 34 54
e 34 60
e 34 70
e 34 71
e 34 88
e 34 115
e 34 116
e 34 124
e 35 55
e 35 69
e 35 76
e 35 77
e 35 88
e 35 91
e 35 92
e 35 94
e 35 98
e 35 102
e 35 106
e 35 131
e 35 133
e 36 37
e 36 44
e 36 47
e 36 53
e 36 56
e 36 57
e 36 58
e 36 59
e 36 78
e 36 95
e 36 101
e 36 105
e 36 119
e 36 126
e 37 38
e 37 45
e 37 48
e 37 54
e 37 56
e 37 57
e 37 58
e 37 60
e 37 78
e 37 105
e 37 119
e 37 126
e 38 45
e 38 48
e 38 54
e 38 60
e 38 61
e 38 62
e 38 81
e 38 94
e 38 107
e 38 120
e 38 129
e 38 130
e 39 40
e 39 49
e 39 64
e 39 70
e 39 78
e 39 81
e 39 82
e 39 85
e 39 89
e 39 93
e 39 96
e 39 97
e 39 125
e 40 46
e 40 50
e 40 65
e 40 71
e 40 82
e 40 83
e 40 86
e 40 90
e 40 96
e 40 97
e 40 122
e 41 42
e 41 43
e 41 51
e 41 56
e 41 61
e 41 64
e 41 65
e 41 66
e 41 72
e 41 79
e 41 108
e 41 110
e 41 111
e 42 43
e 42 57
e 42 62
e 42 64
e 42 65
e 42 68
e 42 73
e 42 80
e 42 109
e 42 110
e 42 111
e 42 117
e 43 52
e 43 58
e 43 64
e 43 65
e 43 67
e 43 74
e 43 110
e 43 111
e 43 114
e 43 118
e 44 45
e 44 47
e 44 53
e 44 59
e 44 66
e 44 67
e 44 83
e 44 95
e 44 98
e 44 101
e 44 121
e 44 132
e 45 48
e 45 54
e 45 60
e 45 66
e 45 67
e 45 83
e 45 98
e 45 121
e 45 132
e 46 50
e 46 65
e 46 71
e 46 83
e 46 84
e 46 86
e 46 90
e 46 99
e 46 100
e 46 112
e 46 113
e 46 122
e 47 48
e 47 53
e 47 59
e 47 68
e 47 85
e 47 86
e 47 95
e 47 101
e 47 102
e 47 123
e 47 134
e 48 54
e 48 60
e 48 68
e 48 85
e 48 86
e 48 102
e 48 123
e 48 134
e 49 50
e 49 64
e 49 69
e 49 70
e 49 78
e 49 81
e 49 85
e 49 87
e 49 89
e 49 93
e 49 103
e 49 104
e 49 125
e 50 65
e 50 69
e 50 71
e 50 83
e 50 86
e 50 87
e 50 90
e 50 103
e 50 104
e 50 122
e 51 52
e 51 56
e 51 61
e 51 66
e 51 70
e 51 71
e 51 72
e 51 79
e 51 88
e 51 108
e 51 115
e 51 116
e 51 124
e 52 58
e 52 67
e 52 70
e 52 71
e 52 74
e 52 88
e 52 114
e 52 115
e 52 116
e 52 118
e 52 124
e 53 54
e 53 59
e 53 72
e 53 73
e 53 74
e 53 89
e 53 90
e 53 95
e 53 101
e 53 135
e 54 60
e 54 72
e 54 73
e 54 74
e 54 89
e 54 90
e 54 135
e 55 76
e 55 77
e 55 82
e 55 84
e 55 87
e 55 91
e 55 92
e 55 105
e 55 107
e 55 136
e 55 137
e 56 57
e 56 58
e 56 61
e 56 66
e 56 72
e 56 78
e 56 79
e 56 105
e 56 108
e 56 119
e 56 126
e 57 58
e 57 62
e 57 68
e 57 73
e 57 78
e 57 80
e 57 105
e 57 109
e 57 117
e 57 119
e 57 126
e 58 67
e 58 74
e 58 78
e 58 105
e 58 114
e 58 118
e 58 119
e 58 126
e 59 60
e 59 79
e 59 80
e 59 93
e 59 95
e 59 101
e 59 106
e 59 127
e 59 128
e 60 79
e 60 80
e 60 93
e 60 106
e 60 127
e 60 128
e 61 62
e 61 66
e 61 72
e 61 79
e 61 81
e 61 94
e 61 107
e 61 108
e 61 120
e 61 129
e 61 130
e 62 68
e 62 73
e 62 80
e 62 81
e 62 94
e 62 107
e 62 109
e 62 117
e 62 120
e 62 129
e 62 130
e 63 75
e 63 95
e 63 108
e 63 109
e 63 131
e 63 138
e 63 139
e 64 65
e 64 70
e 64 78
e 64 81
e 64 85
e 64 89
e 64 93
e 64 110
e 64 111
e 64 125
e 65 71
e 65 83
e 65 86
e 65 90
e 65 110
e 65 111
e 65 122
e 66 67
e 66 72
e 66 79
e 66 83
e 66 98
e 66 108
e 66 121
e 66 132
e 67 74
e 67 83
e 67 98
e 67 114
e 67 118
e 67 121
e 67 132
e 68 73
e 68 80
e 68 85
e 68 86
e 68 102
e 68 109
e 68 117
e 68 123
e 68 134
e 69 87
e 69 88
e 69 94
e 69 98
e 69 102
e 69 103
e 69 104
e 69 106
e 69 131
e 69 133
e 70 71
e 70 78
e 70 81
e 70 85
e 70 88
e 70 89
e 70 93
e 70 115
e 70 116
e 70 124
e 70 125
e 71 83
e 71 86
e 71 88
e 71 90
e 71 115
e 71 116
e 71 122
e 71 124
e 72 73
e 72 74
e 72 79
e 72 89
e 72 90
e 72 108
e 72 135
e 73 74
e 73 80
e 73 89
e 73 90
e 73 109
e 73 117
e 73 135
e 74 89
e 74 90
e 74 114
e 74 118
e 74 135
e 75 117
e 75 118
e 75 125
e 75 137
e 75 140
e 76 77
e 76 91
e 76 92
e 76 96
e 76 100
e 76 104
e 76 110
e 76 120
e 76 121
e 77 91
e 77 92
e 77 97
e 77 111
e 77 116
e 77 119
e 77 128
e 77 139
e 78 81
e 78 85
e 78 89
e 78 93
e 78 105
e 78 119
e 78 125
e 78 126
e 79 80
e 79 93
e 79 106
e 79 108
e 79 127
e 79 128
e 80 93
e 80 106
e 80 109
e 80 117
e 80 127
e 80 128
e 81 85
e 81 89
e 81 93
e 81 94
e 81 107
e 81 120
e 81 125
e 81 129
e 81 130
e 82 84
e 82 87
e 82 96
e 82 97
e 82 105
e 82 107
e 82 136
e 82 137
e 83 86
e 83 90
e 83 98
e 83 121
e 83 122
e 83 132
e 84 87
e 84 99
e 84 100
e 84 105
e 84 107
e 84 112
e 84 113
e 84 136
e 84 137
e 85 86
e 85 89
e 85 93
e 85 102
e 85 123
e 85 125
e 85 134
e 86 90
e 86 102
e 86 122
e 86 123
e 86 134
e 87 103
e 87 104
e 87 105
e 87 107
e 87 136
e 87 137
e 88 94
e 88 98
e 88 102
e 88 106
e 88 115
e 88 116
e 88 124
e 88 131
e 88 133
e 89 90
e 89 93
e 89 125
e 89 135
e 90 122
e 90 135
e 91 92
e 91 112
e 91 124
e 91 129
e 91 134
e 91 135
e 92 113
e 92 126
e 92 130
e 92 132
e 92 141
e 93 106
e 93 125
e 93 127
e 93 128
e 94 98
e 94 102
e 94 106
e 94 107
e 94 120
e 94 129
e 94 130
e 94 131
e 94 133
e 95 101
e 95 108
e 95 109
e 95 131
e 95 138
e 95 139
e 96 97
e 96 100
e 96 104
e 96 110
e 96 120
e 96 121
e 97 111
e 97 116
e 97 119
e 97 128
e 97 139
e 98 102
e 98 106
e 98 121
e 98 131
e 98 132
e 98 133
e 99 100
e 99 103
e 99 112
e 99 113
e 99 115
e 99 123
e 99 127
e 99 138
e 99 140
e 100 104
e 100 110
e 100 112
e 100 113
e 100 120
e 100 121
e 101 114
e 101 122
e 101 133
e 101 136
e 101 141
e 102 106
e 102 123
e 102 131
e 102 133
e 102 134
e 103 104
e 103 115
e 103 123
e 103 127
e 103 138
e 103 140
e 104 110
e 104 120
e 104 121
e 105 107
e 105 119
e 105 126
e 105 136
e 105 137
e 106 127
e 106 128
e 106 131
e 106 133
e 107 120
e 107 129
e 107 130
e 107 136
e 107 137
e 108 109
e 108 131
e 108 138
e 108 139
e 109 117
e 109 131
e 109 138
e 109 139
e 110 111
e 110 120
e 110 121
e 111 116
e 111 119
e 111 128
e 111 139
e 112 113
e 112 124
e 112 129
e 112 134
e 112 135
e 113 126
e 113 130
e 113 132
e 113 141
e 114 118
e 114 122
e 114 133
e 114 136
e 114 141
e 115 116
e 115 123
e 115 124
e 115 127
e 115 138
e 115 140
e 116 119
e 116 124
e 116 128
e 116 139
e 117 118
e 117 125
e 117 137
e 117 140
e 118 125
e 118 137
e 118 140
e 119 126
e 119 128
e 119 139
e 120 121
e 120 129
e 120 130
e 121 132
e 122 133
e 122 136
e 122 141
e 123 127
e 123 134
e 123 138
e 123 140
e 124 129
e 124 134
e 124 135
e 125 137
e 125 140
e 126 130
e 126 132
e 126 141
e 127 128
e 127 138
e 127 140
e 128 139
e 129 130
e 129 134
e 129 135
e 130 132
e 130 141
e 131 133
e 131 138
e 131 139
e 132 141
e 133 136
e 133 141
e 134 135
e 136 137
e 136 141
e 137 140
e 138 139
e 138 140
